RT is False
Default write of storage_offers_DA.csv just to have a file (but constraint should be inactive)
Reading model...
...model read.
creating competitive generators file...
...competitive generators recorded.
Loading data...
.. day-ahead data with real-time VRE data read.
Compiling instance...
...instance created.
Creating Offer Mitigation (model will solve as dispatch if TRUE)...
Solving...

Welcome to IBM(R) ILOG(R) CPLEX(R) Interactive Optimizer 12.8.0.0
  with Simplex, Mixed Integer & Barrier Optimizers
5725-A06 5725-A29 5724-Y48 5724-Y49 5724-Y54 5724-Y55 5655-Y21
Copyright IBM Corp. 1988, 2017.  All Rights Reserved.

Type 'help' for a list of available commands.
Type 'help' followed by a command name for more
information on commands.

CPLEX> Logfile 'cplex.log' closed.
Logfile 'C:\Users\llavi\Desktop\test919\logs\tmpvu5yx3xh.cplex.log' open.
CPLEX> New value for parallel optimization mode: -1
CPLEX> New value for mixed integer optimality gap tolerance: 0.01
CPLEX> New value for integrality tolerance: 1e-09
CPLEX> New value for feasibility tolerance: 0.01
CPLEX> New value for deterministic time limit in ticks: 75000
CPLEX> Problem 'C:\Users\llavi\Desktop\test919\logs\tmpb_pczlf4.pyomo.lp' read.
Read time = 0.19 sec. (3.03 ticks)
CPLEX> Problem name         : C:\Users\llavi\Desktop\test919\logs\tmpb_pczlf4.pyomo.lp
Objective sense      : Minimize
Variables            :   26465  [Nneg: 1,  Box: 22000,  Free: 4464]
Objective nonzeros   :    2496
Linear constraints   :   27515  [Less: 14006,  Greater: 4416,  Equal: 9093]
  Nonzeros           :   89171
  RHS nonzeros       :   12248

Variables            : Min LB: -5000.000        Max UB: 1000000.       
Objective nonzeros   : Min   : 15.73158         Max   : 124.0997       
Linear constraints   :
  Nonzeros           : Min   : 0.8500000        Max   : 3000.000       
  RHS nonzeros       : Min   : 0.6916667        Max   : 5000.000       
CPLEX> CPXPARAM_Simplex_Tolerances_Feasibility          0.01
CPXPARAM_Parallel                                -1
CPXPARAM_DetTimeLimit                            75000
CPXPARAM_MIP_Tolerances_MIPGap                   0.01
CPXPARAM_MIP_Tolerances_Integrality              1.0000000000000001e-09
Parallel mode: opportunistic, using up to 4 threads for concurrent optimization.
Tried aggregator 1 time.
LP Presolve eliminated 21401 rows and 15896 columns.
Aggregator did 718 substitutions.
Reduced LP has 5396 rows, 9851 columns, and 31770 nonzeros.
Presolve time = 0.08 sec. (22.46 ticks)

Iteration log . . .
Iteration:     1   Dual objective     =             0.000000
Perturbation started.
Iteration:   101   Dual objective     =             0.000000
Iteration:   380   Dual objective     =             1.371848
Iteration:   655   Dual objective     =             1.918839
Iteration:   960   Dual objective     =             2.066642
Iteration:  1153   Dual objective     =             2.178601
Iteration:  1509   Dual objective     =             2.237571
Iteration:  1818   Dual objective     =             2.268223
Iteration:  2114   Dual objective     =             2.292258
Iteration:  2416   Dual objective     =             2.305909
Iteration:  2707   Dual objective     =         15768.270089
Iteration:  3057   Dual objective     =         23714.448760
Iteration:  3409   Dual objective     =         23714.456629
Iteration:  3722   Dual objective     =         46712.239431
Iteration:  4133   Dual objective     =         52831.450578
Removing perturbation.

Dual simplex solved model.


Dual simplex - Optimal:  Objective =  5.8193791173e+04
Solution time =    0.36 sec.  Iterations = 4436 (0)
Deterministic time = 93.77 ticks  (260.47 ticks/sec)

CPLEX> Solution written to file 'C:\Users\llavi\Desktop\test919\logs\tmpd9_386q0.cplex.sol'.
CPLEX> Exporting results... 
...storage offer mitigation file created
Converting model to MPEC...
...converted
NOTE: initial MIP solve with only storage competitive to get feasible solution
Solving...

Welcome to IBM(R) ILOG(R) CPLEX(R) Interactive Optimizer 12.8.0.0
  with Simplex, Mixed Integer & Barrier Optimizers
5725-A06 5725-A29 5724-Y48 5724-Y49 5724-Y54 5724-Y55 5655-Y21
Copyright IBM Corp. 1988, 2017.  All Rights Reserved.

Type 'help' for a list of available commands.
Type 'help' followed by a command name for more
information on commands.

CPLEX> Logfile 'cplex.log' closed.
Logfile 'C:\Users\llavi\Desktop\test919\logs\tmpayxwsl31.cplex.log' open.
CPLEX> New value for parallel optimization mode: -1
CPLEX> New value for mixed integer optimality gap tolerance: 0.01
CPLEX> New value for integrality tolerance: 1e-09
CPLEX> New value for feasibility tolerance: 0.01
CPLEX> New value for deterministic time limit in ticks: 75000
CPLEX> Problem 'C:\Users\llavi\Desktop\test919\logs\tmp5e4a1k0f.pyomo.lp' read.
Read time = 0.67 sec. (13.96 ticks)
CPLEX> Problem name         : C:\Users\llavi\Desktop\test919\logs\tmp5e4a1k0f.pyomo.lp
Objective sense      : Maximize
Variables            :   53805  [Nneg: 1,  Box: 22000,  Free: 4464,
                                 Binary: 27340]
Objective nonzeros   :    9055
Linear constraints   :  123205  [Less: 41346,  Greater: 59096,  Equal: 22763]
  Nonzeros           :  291682
  RHS nonzeros       :   67410

Variables            : Min LB: -5000.000        Max UB: 1000000.       
Objective nonzeros   : Min   : 0.6916667        Max   : 2500.000       
Linear constraints   :
  Nonzeros           : Min   : 0.6916667        Max   : 1000000.       
  RHS nonzeros       : Min   : 0.6916667        Max   : 1000000.       
CPLEX> CPXPARAM_Simplex_Tolerances_Feasibility          0.01
CPXPARAM_Parallel                                -1
CPXPARAM_DetTimeLimit                            75000
CPXPARAM_MIP_Tolerances_MIPGap                   0.01
CPXPARAM_MIP_Tolerances_Integrality              1.0000000000000001e-09
Tried aggregator 3 times.
MIP Presolve eliminated 88830 rows and 19163 columns.
MIP Presolve added 3330 rows and 0 columns.
MIP Presolve modified 23810 coefficients.
Aggregator did 12969 substitutions.
Reduced MIP has 24736 rows, 21102 columns, and 70547 nonzeros.
Reduced MIP has 8354 binaries, 0 generals, 0 SOSs, and 0 indicators.
Presolve time = 0.61 sec. (165.37 ticks)
Probing fixed 404 vars, tightened 2873 bounds.
Probing time = 5.09 sec. (894.46 ticks)
Tried aggregator 2 times.
MIP Presolve eliminated 913 rows and 811 columns.
MIP Presolve modified 2212 coefficients.
Aggregator did 32 substitutions.
Reduced MIP has 23791 rows, 20259 columns, and 67809 nonzeros.
Reduced MIP has 7949 binaries, 0 generals, 0 SOSs, and 0 indicators.
Presolve time = 0.23 sec. (55.49 ticks)
Probing time = 0.09 sec. (15.08 ticks)
Clique table members: 6483.
MIP emphasis: balance optimality and feasibility.
MIP search method: dynamic search.
Parallel mode: opportunistic, using up to 4 threads.
Root relaxation solution time = 0.86 sec. (496.63 ticks)

        Nodes                                         Cuts/
   Node  Left     Objective  IInf  Best Integer    Best Bound    ItCnt     Gap

      0     0        0.9895   665                      0.9895     3011         
*     0     0      integral     0        0.0000        0.0000     3011    0.00%
Elapsed time = 12.95 sec. (2678.27 ticks, tree = 0.01 MB, solutions = 1)

Root node processing (before b&c):
  Real time             =   12.97 sec. (2680.54 ticks)
Parallel b&c, 4 threads:
  Real time             =    0.00 sec. (0.00 ticks)
  Sync time (average)   =    0.00 sec.
  Wait time (average)   =    0.00 sec.
                          ------------
Total (root+branch&cut) =   12.97 sec. (2680.54 ticks)

Solution pool: 1 solution saved.

MIP - Integer optimal solution:  Objective =  1.0795702110e-09
Solution time =   12.97 sec.  Iterations = 3011  Nodes = 0
Deterministic time = 2680.69 ticks  (206.70 ticks/sec)

CPLEX> Incumbent solution written to file 'C:\Users\llavi\Desktop\test919\logs\tmp9ft8p__9.cplex.sol'.
CPLEX> NOTE: no warmstart specified for MIP iteration, default behavior is true
NOTE: resolving with all competitive generators using storage-only solution to warmstart
Solving...

Welcome to IBM(R) ILOG(R) CPLEX(R) Interactive Optimizer 12.8.0.0
  with Simplex, Mixed Integer & Barrier Optimizers
5725-A06 5725-A29 5724-Y48 5724-Y49 5724-Y54 5724-Y55 5655-Y21
Copyright IBM Corp. 1988, 2017.  All Rights Reserved.

Type 'help' for a list of available commands.
Type 'help' followed by a command name for more
information on commands.

CPLEX> Logfile 'cplex.log' closed.
Logfile 'C:\Users\llavi\Desktop\test919\logs\tmpn1orh_5x.cplex.log' open.
CPLEX> New value for parallel optimization mode: -1
CPLEX> New value for mixed integer optimality gap tolerance: 0.01
CPLEX> New value for integrality tolerance: 1e-09
CPLEX> New value for feasibility tolerance: 0.01
CPLEX> New value for deterministic time limit in ticks: 75000
CPLEX> Problem 'C:\Users\llavi\Desktop\test919\logs\tmpitq7ak9w.pyomo.lp' read.
Read time = 0.70 sec. (13.98 ticks)
CPLEX> MIP start file 'C:\Users\llavi\Desktop\test919\logs\tmp07yochpo.cplex.mst' read.
CPLEX> Problem name         : C:\Users\llavi\Desktop\test919\logs\tmpitq7ak9w.pyomo.lp
Objective sense      : Maximize
Variables            :   54525  [Nneg: 1,  Box: 22720,  Free: 4464,
                                 Binary: 27340]
Objective nonzeros   :    9751
Linear constraints   :  123205  [Less: 41346,  Greater: 59096,  Equal: 22763]
  Nonzeros           :  291682
  RHS nonzeros       :   67410

Variables            : Min LB: -5000.000        Max UB: 1000000.       
Objective nonzeros   : Min   : 0.6916667        Max   : 2500.000       
Linear constraints   :
  Nonzeros           : Min   : 0.6916667        Max   : 1000000.       
  RHS nonzeros       : Min   : 0.6916667        Max   : 1000000.       
CPLEX> CPXPARAM_Simplex_Tolerances_Feasibility          0.01
CPXPARAM_Parallel                                -1
CPXPARAM_DetTimeLimit                            75000
CPXPARAM_MIP_Tolerances_MIPGap                   0.01
CPXPARAM_MIP_Tolerances_Integrality              1.0000000000000001e-09
Warning:  No solution found from 1 MIP starts.
Retaining values of one MIP start for possible repair.
Tried aggregator 3 times.
MIP Presolve eliminated 88830 rows and 19883 columns.
MIP Presolve added 3330 rows and 0 columns.
MIP Presolve modified 23810 coefficients.
Aggregator did 12969 substitutions.
Reduced MIP has 24736 rows, 21102 columns, and 70547 nonzeros.
Reduced MIP has 8354 binaries, 0 generals, 0 SOSs, and 0 indicators.
Presolve time = 0.59 sec. (165.73 ticks)
Probing fixed 404 vars, tightened 2873 bounds.
Probing time = 5.17 sec. (894.46 ticks)
Tried aggregator 2 times.
MIP Presolve eliminated 913 rows and 811 columns.
MIP Presolve modified 2212 coefficients.
Aggregator did 32 substitutions.
Reduced MIP has 23791 rows, 20259 columns, and 67809 nonzeros.
Reduced MIP has 7949 binaries, 0 generals, 0 SOSs, and 0 indicators.
Presolve time = 0.31 sec. (55.49 ticks)
Probing time = 0.09 sec. (15.08 ticks)
Clique table members: 6483.
MIP emphasis: balance optimality and feasibility.
MIP search method: dynamic search.
Parallel mode: opportunistic, using up to 4 threads.
Root relaxation solution time = 0.84 sec. (515.10 ticks)

        Nodes                                         Cuts/
   Node  Left     Objective  IInf  Best Integer    Best Bound    ItCnt     Gap

      0     0   132600.2515   795                 132600.2515     2931         
      0     0   128926.7773   683                   Cuts: 555     3229         
      0     0   128523.8777   623                   Cuts: 250     3338         
      0     0   128374.5017   610                    Cuts: 95     3387         
      0     0   128093.4902   593                    Cuts: 83     3426         
      0     0   128093.4902   578                    Cuts: 75     3457         
      0     0   128093.4902   556                    Cuts: 66     3485         
      0     0   128093.4902   550                    Cuts: 54     3506         
      0     0   128093.4902   536                    Cuts: 44     3517         
      0     0   128093.4902   533                    Cuts: 37     3528         
Repair heuristic found nothing.
      0     2   128093.4902   533                     Cuts: 6     3528         
Elapsed time = 63.81 sec. (14048.42 ticks, tree = 0.03 MB, solutions = 0)
     66    53   115637.9508   439                 126107.9371     4006         
    152   127    85544.2913   403                 126107.9371     4661         
    243   157    72601.4144   397                 126107.9371     4837         
    330   214    63211.3622   394                 126107.9371     5753         
    439   261    58037.1794   387                 126107.9371     7021         
    524   277    31367.6969   380                 126107.9371     8030         
    595   299    55539.9066   383                 126107.9371     8849         
    675   320    33821.8944   379                 126107.9371     9457         
    783   428    16830.9041   340                 126107.9371    10068         
   1484  1099    -9451.1254   271                 126107.9371    10359         
Elapsed time = 72.38 sec. (17167.14 ticks, tree = 9.44 MB, solutions = 0)
   1961  1622    13590.6503   278                 126107.9371    10650         
   2081  1678    51504.9010   411                 124014.9988    15031         
   2425  1829    40574.5496   354                 122528.0110    18980         
   2468  1964    53295.1370   195                  57348.1783    28280         
   2691   178    11891.0151   178                  56822.2267    30857         
   2902   327    22988.5649   147                  56822.2267    32267         
   3033   469    11449.2979   179                  56822.2267    34324         
   3217   579    12570.7985   167                  55636.7915    35667         
   3460   788    22611.4100    84                  55636.7915    38541         
*  3708  1018      integral     0    21611.4034    55636.7915    40135  157.44%
Elapsed time = 147.08 sec. (36319.64 ticks, tree = 6.10 MB, solutions = 1)
   4059   690    22027.0161   161    21611.4034    49953.6564    43726  131.14%
   4392  1040    22853.7844   149    21611.4034    42691.2817    47059   97.54%
*  4660  1215      integral     0    26253.7547    42691.2817    47433   62.61%
   4912   299    40066.9314    92    26253.7547    36417.7168    57516   38.71%
   5025    36    28622.4375    53    26253.7547    36195.2300    58044   37.87%
   5165   100    28400.6629    47    26253.7547    36195.2300    59273   37.87%
   5359   319    26370.8373    24    26253.7547    36195.2300    60810   37.87%
   5567   443    27349.2068    60    26253.7547    29182.3783    61688   11.16%
   5740   559    29022.7195    72    26253.7547    29149.6512    62220   11.03%
   5902   617    28778.4483    78    26253.7547    29149.6512    63027   11.03%
Elapsed time = 205.09 sec. (50330.02 ticks, tree = 6.44 MB, solutions = 2)
   6111   769    27519.5041    40    26253.7547    28990.9205    63925   10.43%
   6346  1111    28203.0740    39    26253.7547    28941.2402    65467   10.24%
   6517  1212    27851.9378    57    26253.7547    28934.6509    66108   10.21%
   6688  1259    26591.0730    47    26253.7547    28934.6509    66277   10.21%
   6859  1217    27799.7676    59    26253.7547    28934.6509    66129   10.21%
   7036  1359    27329.1771    64    26253.7547    28934.6509    66970   10.21%
   7189  1390    26538.4049    45    26253.7547    28934.6509    67203   10.21%
   7360  1703    27849.5810    43    26253.7547    28934.6509    68800   10.21%
   7540  1480    26456.1366    58    26253.7547    28934.6509    67675   10.21%
   7679  1778    28245.9922    48    26253.7547    28934.6509    69496   10.21%
Elapsed time = 244.02 sec. (59906.64 ticks, tree = 16.45 MB, solutions = 2)
   7855  1561    26855.3146    39    26253.7547    28934.6509    68098   10.21%
   8024  1599    27627.0292    62    26253.7547    28934.6509    68277   10.21%
   8161  1802    26792.9907    50    26253.7547    28934.6509    69386   10.21%
   8282  1856    26426.5420    39    26253.7547    28934.6509    69574   10.21%
   8376  1998    28617.6457    51    26253.7547    28934.6509    70524   10.21%
   8440  2048    27987.9575    25    26253.7547    28934.6509    70787   10.21%
   8482  1503        cutoff          26253.7547    28934.6509    67571   10.21%
   8490  1644        cutoff          26253.7547    28934.6509    68456   10.21%
   8499  1649        cutoff          26253.7547    28934.6509    68832   10.21%
   8505  1651        cutoff          26253.7547    28934.6509    68847   10.21%
Elapsed time = 263.30 sec. (70826.50 ticks, tree = 29.62 MB, solutions = 2)
   8510  1652        cutoff          26253.7547    28934.6509    68860   10.21%
   8516  1654        cutoff          26253.7547    28934.6509    68866   10.21%

GUB cover cuts applied:  1
Clique cuts applied:  1
Cover cuts applied:  13
Implied bound cuts applied:  6
Flow cuts applied:  261
Mixed integer rounding cuts applied:  30
Gomory fractional cuts applied:  50

Root node processing (before b&c):
  Real time             =   63.19 sec. (13992.46 ticks)
Parallel b&c, 4 threads:
  Real time             =  200.17 sec. (61393.24 ticks)
  Sync time (average)   =    1.88 sec.
  Wait time (average)   =    0.05 sec.
                          ------------
Total (root+branch&cut) =  263.36 sec. (75385.70 ticks)

Solution pool: 2 solutions saved.

MIP - Deterministic time limit exceeded, integer feasible:  Objective =  2.6253754740e+04
Current MIP best bound =  2.8934650902e+04 (gap = 2680.9, 10.21%)
Solution time =  263.36 sec.  Iterations = 75463  Nodes = 8519 (2752)
Deterministic time = 75385.86 ticks  (286.25 ticks/sec)

CPLEX> Incumbent solution written to file 'C:\Users\llavi\Desktop\test919\logs\tmps02r8d33.cplex.sol'.
CPLEX> Exporting results... 
